4 10 6 18 14 11 15 17 8 12 5 9 13 2 16 7 0 1 3 19  
4 10 18 11 6 15 14 17 8 12 5 9 13 2 16 7 0 1 3 19  
4 10 6 18 14 11 15 0 8 12 5 9 13 2 16 7 17 1 3 19  
4 10 6 18 14 11 15 0 8 12 5 7 9 13 2 17 1 19 16 3  
4 10 6 18 14 11 15 0 8 12 5 9 7 13 2 17 1 19 16 3  
4 10 6 18 14 11 0 8 12 5 9 19 15 3 16 7 2 17 1 13  
4 10 6 18 14 11 15 0 8 12 5 9 19 17 3 13 16 7 2 1  
4 10 6 18 14 11 15 0 8 12 5 9 19 17 1 7 3 13 16 2  
4 10 6 18 14 11 15 0 8 12 5 9 19 17 1 7 2 3 13 16  
4 10 6 18 14 11 0 8 12 5 9 19 15 2 13 16 7 3 1 17  
4 10 6 18 14 11 15 17 8 12 5 9 19 2 13 16 0 1 7 3  
4 10 6 18 15 14 0 11 12 5 9 13 8 7 2 17 1 19 16 3  
4 10 6 18 14 11 15 0 8 12 5 9 19 2 16 17 7 3 1 13  
4 10 6 18 11 15 5 14 9 12 0 2 13 17 1 7 3 19 16 8  
4 10 6 18 14 11 15 0 8 12 5 9 19 17 3 13 16 7 2 1  
4 10 6 18 15 5 11 7 9 14 2 12 17 1 0 19 3 13 16 8  
4 10 6 18 14 15 11 0 8 12 5 9 13 2 7 16 17 1 3 19  
4 10 6 18 14 15 5 11 17 1 7 0 12 9 13 2 3 19 16 8  
4 10 6 15 8 0 18 14 11 12 5 9 7 13 2 17 1 19 16 3  
4 10 6 18 14 11 15 0 8 12 5 9 19 17 1 7 2 3 13 16  
4 10 6 18 14 11 15 0 8 12 17 9 19 5 3 13 16 7 2 1  
4 10 6 18 14 11 15 0 8 12 5 9 7 13 2 17 1 19 16 3  
4 10 6 18 14 11 15 0 8 12 5 9 7 13 2 17 1 19 16 3  
4 10 6 18 14 11 0 8 12 5 9 19 17 15 3 13 16 7 2 1  
4 10 6 18 11 15 5 14 0 12 9 2 13 17 1 7 3 19 16 8  
4 10 6 18 14 11 15 0 8 12 17 9 19 5 3 13 16 7 2 1  
6 4 10 18 14 11 15 0 8 12 5 9 13 2 16 7 17 1 3 19  
4 10 6 18 15 8 0 14 12 5 9 13 11 7 2 17 1 19 16 3  
4 10 6 15 8 0 18 14 11 12 5 9 7 13 2 17 1 19 16 3  
4 10 6 18 14 11 15 0 8 12 5 9 13 2 16 7 1 17 3 19  
4 10 6 18 14 11 15 0 8 12 5 9 13 2 7 17 1 19 16 3  
